!File created by the GAMESS Input Deck Generator Plugin for Avogadro
 $BASIS GBASIS=STO NGAUSS=3 $END
 $CONTRL SCFTYP=RHF RUNTYP=SADPOINT $END
 $STATPT hssend=.t. OPTTOL=0.0005 NSTEP=50 $END
 $STATPT HESS=calc ihrep=5 $END
 $FORCE nvib=2 $END
 $ZMAT DLC=.t. auto=.t. nonvdw(1)=1,6,3,4,4,5,5,6,1,2,2,3 $END
!$ZMAT IFZMAT(1)=1,1,6,1,3,4 fvalue(1)=2.00,2.00 $END


 $DATA 
Title
C1
C     6.0     3.92327809    -1.76077604    -0.99755520
C     6.0     2.95636082    -1.44765186    -0.03527838
C     6.0     2.72933173    -0.10983370     0.30779770
C     6.0     4.45942545     0.57276398     1.04321337
C     6.0     5.34427881    -0.50894052     0.95742857
C     6.0     5.64054251    -0.98421532    -0.32825935
C     6.0     5.85620975     0.08044937    -1.37252939
C     6.0     5.43170977     1.31641662    -1.20342052
C     6.0     4.68493080     1.71894014     0.04742059
O     8.0     4.28709650     2.85825539     0.25104618
H     1.0     4.15927458    -2.80834150    -1.15334880
H     1.0     3.91830039    -1.19175446    -1.91916239
H     1.0     2.75668859    -2.19282722     0.72603673
H     1.0     2.65116882     0.60684937    -0.50111032
H     1.0     2.03940558     0.09873189     1.11843967
H     1.0     4.17052364     0.91599500     2.03240585
H     1.0     5.43809128    -1.18142271     1.80135477
H     1.0     6.30422878    -1.83910453    -0.41418329
H     1.0     6.38108778    -0.21479861    -2.27453899
H     1.0     5.61075830     2.09278297    -1.93560374
 $END
