!File created by the GAMESS Input Deck Generator Plugin for Avogadro
 $BASIS GBASIS=STO NGAUSS=3 $END
 $CONTRL SCFTYP=RHF RUNTYP=OPTIMIZE NZVAR=1 mult=1  ICHARG=0 $END
 $STATPT hssend=.t. OPTTOL=0.0005 NSTEP=50 $END
 $STATPT HESS=calc ihrep=5 $END
 $FORCE nvib=2 $END
 $ZMAT DLC=.t. auto=.t. nonvdw(1)=1,6,3,4 $END
 $ZMAT IFZMAT(1)=1,1,6,1,3,4 fvalue(1)=2.00,2.00 $END


 $DATA 
Title
C1
C     6.0     3.77466    -1.65969    -1.03890
C     6.0     2.86198    -1.69338    -0.01951
C     6.0     2.64586    -0.55228     0.92426
C     6.0     4.21741     0.66903     0.74144
C     6.0     5.22299    -0.42019     0.81549
C     6.0     5.53341    -0.94009    -0.40669
C     6.0     6.12225     0.14328    -1.26168
C     6.0     5.78034     1.44249    -1.12708
C     6.0     4.70323     1.78527    -0.15300
O     8.0     4.45902     2.96486     0.11716
H     1.0     3.84652    -2.57898    -1.63131
H     1.0     3.82663    -0.76247    -1.67643
H     1.0     2.31179    -2.59460     0.23837
H     1.0     1.83179     0.08416     0.67601
H     1.0     2.58366    -0.74433     2.03302
H     1.0     3.77957     1.26358     1.51927
H     1.0     5.16693    -1.06690     1.67340
H     1.0     6.06451    -1.90418    -0.40509
H     1.0     6.95158    -0.16009    -1.89564
H     1.0     6.28998     2.28101    -1.58742
 $END
