!File created by the GAMESS Input Deck Generator Plugin for Avogadro
 $BASIS GBASIS=STO NGAUSS=3 $END
 $CONTRL SCFTYP=RHF RUNTYP=SADPOINT NZVAR=1 mult=1 ICHARG=0 $END
 $STATPT hssend=.t. OPTTOL=0.0005 NSTEP=50 $END
 $STATPT HESS=calc ihrep=5 $END
 $FORCE nvib=2 $END
 $ZMAT DLC=.t. auto=.t. nonvdw(1)=4,17,5,18,17,18,4,5 $END
!$ZMAT IFZMAT(1)=1,4,17,1,5,18,1,17,18 fvalue(1)=2.08,2.01,1.98 $END

 $DATA 
Title
C     6.0    -0.40654609     1.05444145     0.58194309
C     6.0    -1.01954567     0.12864779    -0.50039786
C     6.0    -0.14483452    -1.15012741    -0.48496622
C     6.0     1.05596519     0.59876060     0.68076205
C     6.0     1.18527520    -0.70259762     0.14659131
C     6.0     2.21828341    -1.73602545     0.59505588
H     1.0    -0.90321213     0.90473258     1.54057133
H     1.0    -0.49870461     2.10466671     0.31725323
H     1.0    -0.95994270     0.60323679    -1.47534621
H     1.0    -2.06259012    -0.10129765    -0.30078053
H     1.0    -0.01456659    -1.59691203    -1.46733320
H     1.0    -0.56691462    -1.90677142     0.17628241
H     1.0     1.63765574     0.89448267     1.54182911
H     1.0     1.81326532    -2.26765656     1.45397007
H     1.0     3.14282084    -1.24835384     0.88661152
H     1.0     2.42224598    -2.45350361    -0.19407880
B     5.0     1.96159828     0.78982049    -0.77761734
H     1.0     2.04148555    -0.26791865    -1.33039236
H     1.0     1.34080434     1.47348046    -1.46773016
H     1.0     3.02911973     1.08747113    -0.45775232
 $END
